NAME : netgen22-5-3
COMMENT : Generated using the function generateClusteredNetwork from the R-package netgen (Bossek,2015) - Number of clusters: 5
TYPE : TSP
DIMENSION : 22
EDGE_WEIGHT_TYPE : EUC_2D
NODE_COORD_SECTION
1 41.9164751195 75.8135528526
2 37.8611005677 73.5976220804
3 47.065791773 79.2107642514
4 39.0746322492 71.0694071033
5 47.3503045016 73.7027944581
6 56.5359443385 85.7975171543
7 17.4499231578 47.8032449285
8 12.6797697663 43.8766659766
9 18.8891848361 51.8039658047
10 14.1378010218 55.3438091677
11 91.8975805696 15.6009405087
12 80.9175466425 17.768550892
13 86.2924208309 5.7811038265
14 88.6089364727 15.0622137748
15 81.3528907678 25.1533631772
16 79.5504016027 24.9558715147
17 73.8397623133 29.4142964314
18 77.6774306333 29.7722833237
19 9.6715864821 86.0590672803
20 9.2324005779 79.4600958106
21 6.1941178206 90.4667672267
22 14.4124022424 86.9414613552
EOF
